language ESSENCE' 1.0
letting lastdx=90
letting cage be [
[33,9,7,9,8,8,8,0,0, 0,0],
[2,15,11,0,0, 0,0, 0,0, 0,0],
[32,14,7,14,8,13,8,13,9,0,0],
[48,7,5,7,4,8,4,8,5,9,5],
[6,6,2,0,0, 0,0, 0,0, 0,0],
[15,6,5,0,0, 0,0, 0,0, 0,0],
[14,11,8,11,7,0,0, 0,0, 0,0],
[3,10,2,0,0, 0,0, 0,0, 0,0],
[22,16,10,16,9,16,8,0,0, 0,0],
[28,15,14,15,13,14,13,0,0, 0,0],
[18,10,13,9,13,8,13,0,0, 0,0],
[31,11,2,12,2,12,1,0,0, 0,0],
[26,8,15,8,14,9,14,10,14,0,0],
[33,11,13,12,13,12,14,0,0, 0,0],
[21,10,10,9,10,8,10,0,0, 0,0],
[3,11,5,0,0, 0,0, 0,0, 0,0],
[7,6,8,0,0, 0,0, 0,0, 0,0],
[48,7,15,7,16,6,16,5,16,5,15],
[16,13,13,13,14,0,0, 0,0, 0,0],
[33,3,11,3,10,2,10,1,10,0,0],
[23,6,6,5,6,5,5,0,0, 0,0],
[4,4,4,0,0, 0,0, 0,0, 0,0],
[24,6,11,5,11,5,10,0,0, 0,0],
[10,9,1,0,0, 0,0, 0,0, 0,0],
[11,3,4,3,3,0,0, 0,0, 0,0],
[47,13,11,13,10,12,10,11,10,11,11],
[22,2,7,3,7,3,8,0,0, 0,0],
[21,7,3,7,2,8,2,0,0, 0,0],
[23,11,15,11,14,12,15,13,15,0,0],
[36,6,4,5,4,5,3,6,3,0,0],
[2,4,16,0,0, 0,0, 0,0, 0,0],
[1,2,2,0,0, 0,0, 0,0, 0,0],
[12,4,9,4,10,0,0, 0,0, 0,0],
[1,15,8,0,0, 0,0, 0,0, 0,0],
[25,16,4,16,5,15,5,0,0, 0,0],
[35,4,13,4,14,3,14,3,13,3,12],
[42,2,5,2,6,1,6,1,7,0,0],
[32,11,12,12,12,12,11,0,0, 0,0],
[15,16,1,0,0, 0,0, 0,0, 0,0],
[43,2,14,2,13,2,12,2,11,0,0],
[11,5,13,5,14,0,0, 0,0, 0,0],
[44,5,1,5,2,4,2,4,3,0,0],
[1,13,4,0,0, 0,0, 0,0, 0,0],
[13,6,1,0,0, 0,0, 0,0, 0,0],
[33,1,9,2,9,3,9,0,0, 0,0],
[11,8,11,0,0, 0,0, 0,0, 0,0],
[36,14,5,14,6,13,6,0,0, 0,0],
[41,1,15,1,16,2,16,2,15,0,0],
[45,4,1,3,1,3,2,2,1,0,0],
[8,15,2,0,0, 0,0, 0,0, 0,0],
[5,7,10,0,0, 0,0, 0,0, 0,0],
[12,10,12,0,0, 0,0, 0,0, 0,0],
[2,11,9,0,0, 0,0, 0,0, 0,0],
[17,11,16,12,16,0,0, 0,0, 0,0],
[12,11,1,10,1,0,0, 0,0, 0,0],
[35,14,14,14,15,14,16,13,16,15,16],
[23,1,11,1,12,1,13,1,14,0,0],
[14,1,3,0,0, 0,0, 0,0, 0,0],
[13,9,3,8,3,9,2,0,0, 0,0],
[9,8,6,0,0, 0,0, 0,0, 0,0],
[53,16,13,16,14,16,15,15,15,16,16],
[8,7,11,0,0, 0,0, 0,0, 0,0],
[40,10,7,10,6,9,6,11,6,0,0],
[7,1,1,1,2,0,0, 0,0, 0,0],
[18,1,4,1,5,0,0, 0,0, 0,0],
[12,1,8,2,8,0,0, 0,0, 0,0],
[25,2,3,2,4,0,0, 0,0, 0,0],
[31,3,5,4,5,4,6,3,6,0,0],
[20,3,15,3,16,4,15,0,0, 0,0],
[18,4,7,4,8,0,0, 0,0, 0,0],
[30,4,11,4,12,0,0, 0,0, 0,0],
[26,5,7,6,7,7,7,7,6,8,7],
[4,7,1,8,1,0,0, 0,0, 0,0],
[10,7,8,0,0, 0,0, 0,0, 0,0],
[15,7,9,0,0, 0,0, 0,0, 0,0],
[48,7,12,8,12,9,12,9,11,10,11],
[29,7,13,7,14,0,0, 0,0, 0,0],
[39,9,4,10,4,10,5,10,3,0,0],
[27,11,3,11,4,0,0, 0,0, 0,0],
[21,12,3,12,4,0,0, 0,0, 0,0],
[38,12,7,13,7,12,8,12,9,0,0],
[53,13,1,13,2,13,3,14,3,15,3],
[5,13,12,0,0, 0,0, 0,0, 0,0],
[39,14,1,14,2,15,1,0,0, 0,0],
[9,14,4,15,4,0,0, 0,0, 0,0],
[4,14,9,0,0, 0,0, 0,0, 0,0],
[41,14,10,15,10,15,9,0,0, 0,0],
[39,14,11,14,12,15,12,16,12,16,11],
[7,15,6,15,7,0,0, 0,0, 0,0],
[9,16,2,16,3,0,0, 0,0, 0,0],
[19,16,6,16,7,0,0, 0,0, 0,0]
]
